problems/csplib-prob015/SchursLemma-models/noch/O2/lingeling/model_1_3-7-11-solution000001.eprime-solution
language ESSENCE' 1.0

letting boxes_PartitionAsSet_ExplicitR5_ExplicitVarSizeWithMarker_Marker be [1, 1, 1, 1, 2, 2, 3; int(1..7)]
letting boxes_PartitionAsSet_ExplicitR5_ExplicitVarSizeWithMarker_Values be
        [[1, 1, 1, 1, 1, 1, 1, 1, 1, 1, 1; int(1..11)], [3, 1, 1, 1, 1, 1, 1, 1, 1, 1, 1; int(1..11)],
         [5, 1, 1, 1, 1, 1, 1, 1, 1, 1, 1; int(1..11)], [11, 1, 1, 1, 1, 1, 1, 1, 1, 1, 1; int(1..11)],
         [6, 10, 1, 1, 1, 1, 1, 1, 1, 1, 1; int(1..11)], [7, 9, 1, 1, 1, 1, 1, 1, 1, 1, 1; int(1..11)],
         [2, 4, 8, 1, 1, 1, 1, 1, 1, 1, 1; int(1..11)]; int(1..7)]
