problems/csplib-prob015/SchursLemma-models/noch/O2/lingeling/model_1_3-7-11-solution000001.solution
language Essence 1.3

letting boxes be partition({1}, {2, 4, 8}, {3}, {5}, {6, 10}, {7, 9}, {11})
